Route #1: 57 61 16 43 68 19 26 35 65 69 56 47
Route #2: 46 20 75 25 41 9 55 15 33 54
Route #3: 11 52 28 79 18 48 14
Route #4: 71 34 2 37 8 78 30 6 24
Route #5: 58 32 4 22 45 50 72 76
Route #6: 64 17 31 27 59 5 23 62
Route #7: 51 77 39 60 12 44 29 74
Route #8: 21 7 10 63 1
Route #9: 36 38 70 66 67 53 3
Route #10: 40 13 42 73 49
Cost 1875.1390150325824